
Gurobi 8.1.1 (linux64) logging started Tue Apr 20 15:50:10 2021


Gurobi 8.1.1 (linux64) logging started Tue Apr 20 15:54:30 2021

Academic license - for non-commercial use only
Presolve added 234 rows and 0 columns
Presolve removed 0 rows and 133 columns
Presolve time: 0.00s
Optimize a model with 51 rows, 296 columns and 341 nonzeros
Model has 268 general constraints
Variable types: 8 continuous, 288 integer (244 binary)
Coefficient statistics:
  Matrix range     [2e-08, 1e+00]
  Objective range  [1e+00, 1e+00]
  Bounds range     [6e-03, 1e+00]
  RHS range        [1e+00, 1e+00]
Presolve added 234 rows and 0 columns
Presolve removed 0 rows and 133 columns
Presolve time: 0.00s
Presolved: 285 rows, 163 columns, 834 nonzeros
Variable types: 2 continuous, 161 integer (161 binary)
Found heuristic solution: objective 0.5367298

Root relaxation: objective 3.010015e-01, 154 iterations, 0.00 seconds

    Nodes    |    Current Node    |     Objective Bounds      |     Work
 Expl Unexpl |  Obj  Depth IntInf | Incumbent    BestBd   Gap | It/Node Time

     0     0    0.30100    0   59    0.53673    0.30100  43.9%     -    0s
H    0     0                       0.4785920    0.30100  37.1%     -    0s
H    0     0                       0.4058959    0.30100  25.8%     -    0s
H    0     0                       0.4058950    0.30100  25.8%     -    0s
H    0     0                       0.3713583    0.30100  18.9%     -    0s
H    0     0                       0.3586144    0.30100  16.1%     -    0s
     0     0    0.35218    0   86    0.35861    0.35218  1.79%     -    0s
     0     0    0.35218    0   86    0.35861    0.35218  1.79%     -    0s
     0     2    0.35218    0   86    0.35861    0.35218  1.79%     -    0s
H   41    12                       0.3585585    0.35263  1.65%  11.5    0s

Cutting planes:
  Gomory: 2
  Implied bound: 58
  Zero half: 21

Explored 59 nodes (1081 simplex iterations) in 0.04 seconds
Thread count was 8 (of 8 available processors)

Solution count 7: 0.358559 0.358614 0.371358 ... 0.53673

Optimal solution found (tolerance 1.00e-04)
Best objective 3.585585298887e-01, best bound 3.585585298887e-01, gap 0.0000%

Gurobi 8.1.1 (linux64) logging started Tue Apr 20 15:54:30 2021

Academic license - for non-commercial use only
Presolve added 1045 rows and 278 columns
Presolve time: 0.02s
Optimize a model with 53 rows, 570 columns and 637 nonzeros
Model has 540 general constraints
Variable types: 10 continuous, 560 integer (516 binary)
Coefficient statistics:
  Matrix range     [2e-08, 1e+00]
  Objective range  [1e+00, 1e+00]
  Bounds range     [6e-03, 2e+00]
  RHS range        [1e+00, 2e+00]
Presolve added 1045 rows and 278 columns
Presolve time: 0.02s
Presolved: 1098 rows, 848 columns, 3887 nonzeros
Variable types: 2 continuous, 846 integer (599 binary)
Found heuristic solution: objective 0.7085265
Found heuristic solution: objective 0.5869999

Root relaxation: objective 2.002849e-01, 1994 iterations, 0.07 seconds

    Nodes    |    Current Node    |     Objective Bounds      |     Work
 Expl Unexpl |  Obj  Depth IntInf | Incumbent    BestBd   Gap | It/Node Time

     0     0    0.20028    0  315    0.58700    0.20028  65.9%     -    0s
H    0     0                       0.5092945    0.20028  60.7%     -    0s
H    0     0                       0.3743321    0.20068  46.4%     -    0s
H    0     0                       0.3740969    0.20068  46.4%     -    0s
H    0     0                       0.3574674    0.20068  43.9%     -    0s
H    0     0                       0.3530511    0.20068  43.2%     -    0s
     0     0    0.20134    0  316    0.35305    0.20134  43.0%     -    0s
H    0     0                       0.3408339    0.20134  40.9%     -    0s
     0     0    0.20178    0  341    0.34083    0.20178  40.8%     -    0s
H    0     0                       0.3405202    0.20178  40.7%     -    0s
H    0     0                       0.3279719    0.20178  38.5%     -    0s
H    0     0                       0.3226574    0.20178  37.5%     -    0s
     0     0    0.20455    0  386    0.32266    0.20455  36.6%     -    0s
H    0     0                       0.3226574    0.20455  36.6%     -    0s
     0     0    0.20603    0  380    0.32266    0.20603  36.1%     -    0s
     0     0    0.20982    0  374    0.32266    0.20982  35.0%     -    0s
     0     0    0.21051    0  379    0.32266    0.21051  34.8%     -    0s
     0     0    0.21129    0  409    0.32266    0.21129  34.5%     -    0s
H    0     0                       0.3151900    0.21129  33.0%     -    0s
     0     0    0.21129    0  392    0.31519    0.21129  33.0%     -    0s
H    0     0                       0.3151896    0.21129  33.0%     -    0s
     0     0    0.21129    0  397    0.31519    0.21129  33.0%     -    0s
     0     0    0.21129    0  347    0.31519    0.21129  33.0%     -    0s
     0     2    0.21129    0  347    0.31519    0.21129  33.0%     -    0s
H   98    66                       0.3150515    0.25390  19.4%  80.7    0s
H  107    67                       0.3126640    0.25390  18.8%  78.0    0s
H  110    64                       0.3096191    0.25390  18.0%  76.2    0s
H  332    38                       0.3073035    0.27495  10.5%  56.8    0s
H  376    30                       0.3070704    0.28464  7.30%  54.0    0s
H  395    33                       0.3070693    0.28464  7.30%  53.1    0s

Cutting planes:
  Gomory: 4
  Cover: 35
  Implied bound: 159
  MIR: 22
  Flow cover: 6
  Inf proof: 1
  Zero half: 23

Explored 578 nodes (30350 simplex iterations) in 0.56 seconds
Thread count was 8 (of 8 available processors)

Solution count 10: 0.307069 0.30707 0.307303 ... 0.322657

Optimal solution found (tolerance 1.00e-04)
Best objective 3.070692887305e-01, best bound 3.070692887305e-01, gap 0.0000%

Gurobi 8.1.1 (linux64) logging started Tue Apr 20 15:54:30 2021

Academic license - for non-commercial use only
Presolve added 1334 rows and 123 columns
Presolve time: 0.03s
Optimize a model with 55 rows, 944 columns and 1033 nonzeros
Model has 912 general constraints
Variable types: 12 continuous, 932 integer (888 binary)
Coefficient statistics:
  Matrix range     [2e-08, 1e+00]
  Objective range  [1e+00, 1e+00]
  Bounds range     [6e-03, 3e+00]
  RHS range        [1e+00, 3e+00]
Presolve added 1334 rows and 123 columns
Presolve time: 0.03s
Presolved: 1389 rows, 1067 columns, 5282 nonzeros
Variable types: 2 continuous, 1065 integer (819 binary)
Found heuristic solution: objective 0.7433340
Found heuristic solution: objective 0.5199935

Root relaxation: objective 1.501441e-01, 1234 iterations, 0.05 seconds

    Nodes    |    Current Node    |     Objective Bounds      |     Work
 Expl Unexpl |  Obj  Depth IntInf | Incumbent    BestBd   Gap | It/Node Time

     0     0    0.15014    0  170    0.51999    0.15014  71.1%     -    0s
H    0     0                       0.5110524    0.15014  70.6%     -    0s
H    0     0                       0.5003139    0.15014  70.0%     -    0s
     0     0    0.15072    0  273    0.50031    0.15072  69.9%     -    0s
H    0     0                       0.4924430    0.15072  69.4%     -    0s
H    0     0                       0.3809178    0.15072  60.4%     -    0s
     0     0    0.17477    0  304    0.38092    0.17477  54.1%     -    0s
H    0     0                       0.3573794    0.17477  51.1%     -    0s
H    0     0                       0.3111172    0.17477  43.8%     -    0s
     0     0    0.17603    0  313    0.31112    0.17603  43.4%     -    0s
     0     0    0.17603    0  329    0.31112    0.17603  43.4%     -    0s
H    0     0                       0.2985473    0.17603  41.0%     -    0s
     0     0    0.17645    0  317    0.29855    0.17645  40.9%     -    0s
     0     0    0.17645    0  293    0.29855    0.17645  40.9%     -    0s
H    0     0                       0.2985473    0.17645  40.9%     -    0s
     0     2    0.17645    0  293    0.29855    0.17645  40.9%     -    0s
H   34    37                       0.2985472    0.17645  40.9%   175    0s
H  177   131                       0.2956666    0.17800  39.8%   111    0s
H  416   229                       0.2956656    0.19906  32.7%  83.3    0s
H  418   224                       0.2938084    0.21176  27.9%  84.6    0s
H  433   223                       0.2913831    0.21180  27.3%  84.6    0s
H  452   236                       0.2909785    0.21180  27.2%  82.2    0s
H  496   231                       0.2850538    0.21180  25.7%  83.1    0s
H  537   242                       0.2850507    0.21180  25.7%  83.0    0s
H  771   291                       0.2767675    0.21221  23.3%  89.6    0s
H 1574   355                       0.2746942    0.22681  17.4%  96.9    1s
H 4115   269                       0.2746933    0.24785  9.77%   105    3s

Cutting planes:
  Gomory: 1
  Cover: 207
  Implied bound: 478
  Clique: 1
  MIR: 63
  Flow cover: 2
  GUB cover: 1
  Inf proof: 1
  Zero half: 38

Explored 5168 nodes (527482 simplex iterations) in 3.96 seconds
Thread count was 8 (of 8 available processors)

Solution count 10: 0.274693 0.274694 0.276767 ... 0.295667

Optimal solution found (tolerance 1.00e-04)
Best objective 2.746933019347e-01, best bound 2.746933019347e-01, gap 0.0000%

Gurobi 8.1.1 (linux64) logging started Tue Apr 20 15:54:35 2021

Academic license - for non-commercial use only
Presolve added 1652 rows and 0 columns
Presolve removed 0 rows and 100 columns
Presolve time: 0.04s
Optimize a model with 57 rows, 1418 columns and 1529 nonzeros
Model has 1384 general constraints
Variable types: 14 continuous, 1404 integer (1360 binary)
Coefficient statistics:
  Matrix range     [2e-08, 1e+00]
  Objective range  [1e+00, 1e+00]
  Bounds range     [6e-03, 4e+00]
  RHS range        [1e+00, 4e+00]
Presolve added 1652 rows and 0 columns
Presolve removed 0 rows and 100 columns
Presolve time: 0.04s
Presolved: 1709 rows, 1318 columns, 6633 nonzeros
Variable types: 2 continuous, 1316 integer (1072 binary)
Found heuristic solution: objective 0.6842023
Found heuristic solution: objective 0.5979797

Root relaxation: objective 1.201017e-01, 1599 iterations, 0.05 seconds

    Nodes    |    Current Node    |     Objective Bounds      |     Work
 Expl Unexpl |  Obj  Depth IntInf | Incumbent    BestBd   Gap | It/Node Time

     0     0    0.12010    0  240    0.59798    0.12010  79.9%     -    0s
H    0     0                       0.5112429    0.12010  76.5%     -    0s
H    0     0                       0.5006393    0.12010  76.0%     -    0s
H    0     0                       0.4832186    0.12010  75.1%     -    0s
     0     0    0.12058    0  261    0.48322    0.12058  75.0%     -    0s
H    0     0                       0.4589772    0.12058  73.7%     -    0s
H    0     0                       0.4589624    0.12058  73.7%     -    0s
H    0     0                       0.3734500    0.12058  67.7%     -    0s
     0     0    0.12148    0  342    0.37345    0.12148  67.5%     -    0s
H    0     0                       0.3658765    0.12148  66.8%     -    0s
     0     0    0.12210    0  339    0.36588    0.12210  66.6%     -    0s
H    0     0                       0.3345098    0.12210  63.5%     -    0s
     0     0    0.12211    0  348    0.33451    0.12211  63.5%     -    0s
H    0     0                       0.3158618    0.12211  61.3%     -    0s
     0     0    0.12255    0  356    0.31586    0.12255  61.2%     -    0s
     0     0    0.12267    0  352    0.31586    0.12267  61.2%     -    0s
H    0     0                       0.2772306    0.12267  55.8%     -    0s
     0     0    0.12412    0  399    0.27723    0.12412  55.2%     -    0s
     0     0    0.12420    0  391    0.27723    0.12420  55.2%     -    0s
     0     0    0.12561    0  394    0.27723    0.12561  54.7%     -    0s
     0     0    0.12566    0  398    0.27723    0.12566  54.7%     -    0s
     0     0    0.14223    0  394    0.27723    0.14223  48.7%     -    0s
     0     0    0.14223    0  389    0.27723    0.14223  48.7%     -    0s
     0     0    0.14223    0  407    0.27723    0.14223  48.7%     -    0s
     0     0    0.14223    0  388    0.27723    0.14223  48.7%     -    0s
     0     2    0.14223    0  388    0.27723    0.14223  48.7%     -    0s
H  274   193                       0.2772287    0.18623  32.8%   148    1s
H  724   369                       0.2760369    0.19107  30.8%   146    1s
H  845   412                       0.2747165    0.19155  30.3%   142    1s
H 3214  1058                       0.2745580    0.20717  24.5%   155    4s
H 3492  1140                       0.2745580    0.20767  24.4%   154    4s
  3807  1217     cutoff   21         0.27456    0.20791  24.3%   154    5s
H 4620  1407                       0.2745580    0.21175  22.9%   155    8s
H 4626  1346                       0.2745574    0.21175  22.9%   155    8s
H 4669  1294                       0.2745574    0.21175  22.9%   154    8s
H 4721  1257                       0.2745574    0.21175  22.9%   153    8s
  7458  1787     cutoff   32         0.27456    0.21175  22.9%   122   10s
 18204  5138    0.21175   33  319    0.27456    0.21175  22.9%  92.6   15s
 29533  7248    0.21175   24  204    0.27456    0.21175  22.9%  85.6   26s
 36570  7285 infeasible   31         0.27456    0.21175  22.9%  88.7   30s
 44444  5811     cutoff   36         0.27456    0.22181  19.2%  94.7   35s
 51913  3528    0.24699   22  240    0.27456    0.24083  12.3%  98.8   40s

Cutting planes:
  Gomory: 5
  Cover: 2
  Implied bound: 5
  Clique: 3
  MIR: 18
  StrongCG: 2
  Flow cover: 175
  GUB cover: 2
  Zero half: 21

Explored 59595 nodes (5833129 simplex iterations) in 43.63 seconds
Thread count was 8 (of 8 available processors)

Solution count 10: 0.274557 0.274557 0.274557 ... 0.277231

Optimal solution found (tolerance 1.00e-04)
Best objective 2.745573561226e-01, best bound 2.745573561226e-01, gap 0.0000%

Gurobi 8.1.1 (linux64) logging started Tue Apr 20 15:55:18 2021

Academic license - for non-commercial use only
Presolve added 2238 rows and 0 columns
Presolve removed 0 rows and 315 columns
Presolve time: 0.05s
Optimize a model with 59 rows, 1992 columns and 2125 nonzeros
Model has 1956 general constraints
Variable types: 16 continuous, 1976 integer (1932 binary)
Coefficient statistics:
  Matrix range     [2e-08, 1e+00]
  Objective range  [1e+00, 1e+00]
  Bounds range     [6e-03, 5e+00]
  RHS range        [1e+00, 5e+00]
Presolve added 2238 rows and 0 columns
Presolve removed 0 rows and 315 columns
Presolve time: 0.04s
Presolved: 2297 rows, 1677 columns, 7890 nonzeros
Variable types: 2 continuous, 1675 integer (1433 binary)
Found heuristic solution: objective 0.6175600

Root relaxation: objective 1.000868e-01, 1141 iterations, 0.04 seconds

    Nodes    |    Current Node    |     Objective Bounds      |     Work
 Expl Unexpl |  Obj  Depth IntInf | Incumbent    BestBd   Gap | It/Node Time

     0     0    0.10009    0  228    0.61756    0.10009  83.8%     -    0s
H    0     0                       0.4923061    0.10009  79.7%     -    0s
     0     0    0.10056    0  229    0.49231    0.10056  79.6%     -    0s
H    0     0                       0.4745159    0.10056  78.8%     -    0s
     0     0    0.10056    0  227    0.47452    0.10056  78.8%     -    0s
H    0     0                       0.4341389    0.10056  76.8%     -    0s
H    0     0                       0.3341431    0.10056  69.9%     -    0s
     0     0    0.10151    0  266    0.33414    0.10151  69.6%     -    0s
     0     0    0.10151    0  264    0.33414    0.10151  69.6%     -    0s
     0     0    0.10167    0  316    0.33414    0.10167  69.6%     -    0s
     0     0    0.10167    0  260    0.33414    0.10167  69.6%     -    0s
     0     0    0.10169    0  304    0.33414    0.10169  69.6%     -    0s
     0     0    0.10169    0  302    0.33414    0.10169  69.6%     -    0s
     0     0    0.10181    0  302    0.33414    0.10181  69.5%     -    0s
     0     0    0.10182    0  312    0.33414    0.10182  69.5%     -    0s
     0     0    0.10243    0  254    0.33414    0.10243  69.3%     -    0s
     0     0    0.10251    0  261    0.33414    0.10251  69.3%     -    0s
     0     0    0.10285    0  354    0.33414    0.10285  69.2%     -    0s
     0     0    0.10291    0  348    0.33414    0.10291  69.2%     -    0s
     0     0    0.10342    0  407    0.33414    0.10342  69.0%     -    0s
     0     0    0.10354    0  379    0.33414    0.10354  69.0%     -    0s
H    0     0                       0.3193728    0.10354  67.6%     -    0s
     0     0    0.10572    0  412    0.31937    0.10572  66.9%     -    0s
     0     0    0.10577    0  399    0.31937    0.10577  66.9%     -    0s
     0     0    0.10617    0  363    0.31937    0.10617  66.8%     -    0s
     0     0    0.10619    0  388    0.31937    0.10619  66.7%     -    0s
H    0     0                       0.2992451    0.10619  64.5%     -    0s
     0     0    0.10650    0  400    0.29925    0.10650  64.4%     -    0s
     0     0    0.10660    0  422    0.29925    0.10660  64.4%     -    0s
     0     0    0.10677    0  443    0.29925    0.10677  64.3%     -    0s
     0     0    0.10682    0  451    0.29925    0.10682  64.3%     -    0s
     0     0    0.10695    0  444    0.29925    0.10695  64.3%     -    0s
     0     0    0.10715    0  435    0.29925    0.10715  64.2%     -    0s
     0     0    0.10731    0  440    0.29925    0.10731  64.1%     -    0s
     0     0    0.10735    0  452    0.29925    0.10735  64.1%     -    0s
     0     0    0.10746    0  445    0.29925    0.10746  64.1%     -    0s
     0     0    0.10751    0  446    0.29925    0.10751  64.1%     -    0s
     0     0    0.10759    0  447    0.29925    0.10759  64.0%     -    0s
     0     0    0.10762    0  450    0.29925    0.10762  64.0%     -    0s
H    0     0                       0.2941000    0.10762  63.4%     -    0s
     0     0    0.10762    0  448    0.29410    0.10762  63.4%     -    0s
     0     0    0.10762    0  450    0.29410    0.10762  63.4%     -    0s
     0     0    0.11801    0  465    0.29410    0.11801  59.9%     -    1s
     0     0    0.11801    0  467    0.29410    0.11801  59.9%     -    1s
     0     0    0.11809    0  437    0.29410    0.11809  59.8%     -    1s
     0     0    0.11809    0  437    0.29410    0.11809  59.8%     -    1s
     0     2    0.11809    0  437    0.29410    0.11809  59.8%     -    1s
H  124   119                       0.2700015    0.14515  46.2%   189    1s
  2427  1182     cutoff   15         0.27000    0.18584  31.2%   163    5s
  7091  2392    0.20261   30  301    0.27000    0.18746  30.6%   110   10s
 15588  5813     cutoff   35         0.27000    0.18746  30.6%  92.6   15s
 25650  8352    0.25563   32  307    0.27000    0.18746  30.6%  89.4   20s
 29655  9206    0.25393   40  437    0.27000    0.18746  30.6%  88.5   30s
 30511  9510    0.18746   45  225    0.27000    0.18746  30.6%  88.8   35s
 39792 10253    0.18746   50  245    0.27000    0.18746  30.6%  86.7   40s
 52188  9566    0.25871   49  243    0.27000    0.18746  30.6%  87.5   45s
 64915 10078    0.24701   55  252    0.27000    0.18746  30.6%  87.5   50s
 78153 11200    0.25307   48  168    0.27000    0.19829  26.6%  88.0   55s
 91507 11196     cutoff   61         0.27000    0.20968  22.3%  88.8   60s
 104517 10282    0.25334   47  322    0.27000    0.21864  19.0%  89.6   65s
 113973  9295    0.24642   54  211    0.27000    0.22550  16.5%  89.6   70s
 126290  7487    0.25046   51  172    0.27000    0.23511  12.9%  88.6   75s
*128218  7197              67       0.2700006    0.23640  12.4%  88.3   75s
 142465  3249     cutoff   56         0.27000    0.25205  6.65%  86.0   80s

Explored 149355 nodes (12509110 simplex iterations) in 81.28 seconds
Thread count was 8 (of 8 available processors)

Solution count 10: 0.270001 0.270002 0.2941 ... 0.61756

Optimal solution found (tolerance 1.00e-04)
Best objective 2.700005622526e-01, best bound 2.700005622526e-01, gap 0.0000%

Gurobi 8.1.1 (linux64) logging started Tue Apr 20 15:56:40 2021

Academic license - for non-commercial use only
Presolve added 2615 rows and 0 columns
Presolve removed 0 rows and 686 columns
Presolve time: 0.06s
Optimize a model with 61 rows, 2666 columns and 2821 nonzeros
Model has 2628 general constraints
Variable types: 18 continuous, 2648 integer (2604 binary)
Coefficient statistics:
  Matrix range     [2e-08, 1e+00]
  Objective range  [1e+00, 1e+00]
  Bounds range     [6e-03, 6e+00]
  RHS range        [1e+00, 6e+00]
Presolve added 2615 rows and 0 columns
Presolve removed 0 rows and 686 columns
Presolve time: 0.05s
Presolved: 2676 rows, 1980 columns, 9312 nonzeros
Variable types: 2 continuous, 1978 integer (1737 binary)
Found heuristic solution: objective 0.6842023
Found heuristic solution: objective 0.6182026

Root relaxation: objective 8.579684e-02, 1096 iterations, 0.03 seconds

    Nodes    |    Current Node    |     Objective Bounds      |     Work
 Expl Unexpl |  Obj  Depth IntInf | Incumbent    BestBd   Gap | It/Node Time

     0     0    0.08580    0  189    0.61820    0.08580  86.1%     -    0s
     0     0    0.08620    0  197    0.61820    0.08620  86.1%     -    0s
H    0     0                       0.4711014    0.08620  81.7%     -    0s
     0     0    0.08621    0  151    0.47110    0.08621  81.7%     -    0s
H    0     0                       0.4295895    0.08621  79.9%     -    0s
     0     0    0.08720    0  323    0.42959    0.08720  79.7%     -    0s
     0     0    0.08720    0  313    0.42959    0.08720  79.7%     -    0s
     0     0    0.08749    0  332    0.42959    0.08749  79.6%     -    0s
H    0     0                       0.4201472    0.08749  79.2%     -    0s
     0     0    0.08749    0  296    0.42015    0.08749  79.2%     -    0s
     0     0    0.08817    0  339    0.42015    0.08817  79.0%     -    0s
H    0     0                       0.4102632    0.08817  78.5%     -    0s
     0     0    0.08844    0  355    0.41026    0.08844  78.4%     -    0s
     0     0    0.08881    0  363    0.41026    0.08881  78.4%     -    0s
H    0     0                       0.3366258    0.08881  73.6%     -    0s
     0     0    0.08881    0  374    0.33663    0.08881  73.6%     -    0s
     0     0    0.08960    0  324    0.33663    0.08960  73.4%     -    0s
     0     0    0.08964    0  274    0.33663    0.08964  73.4%     -    0s
     0     0    0.09113    0  249    0.33663    0.09113  72.9%     -    0s
     0     0    0.09127    0  268    0.33663    0.09127  72.9%     -    0s
     0     0    0.09134    0  310    0.33663    0.09134  72.9%     -    0s
     0     0    0.09145    0  268    0.33663    0.09145  72.8%     -    0s
     0     0    0.09145    0  272    0.33663    0.09145  72.8%     -    0s
     0     0    0.09159    0  268    0.33663    0.09159  72.8%     -    0s
     0     0    0.09184    0  315    0.33663    0.09184  72.7%     -    0s
     0     0    0.09194    0  294    0.33663    0.09194  72.7%     -    0s
H    0     0                       0.3221413    0.09194  71.5%     -    0s
H    0     0                       0.3199136    0.09194  71.3%     -    0s
     0     0    0.09219    0  278    0.31991    0.09219  71.2%     -    0s
     0     0    0.09220    0  306    0.31991    0.09220  71.2%     -    0s
     0     0    0.09251    0  303    0.31991    0.09251  71.1%     -    0s
     0     0    0.09252    0  306    0.31991    0.09252  71.1%     -    0s
     0     0    0.09256    0  312    0.31991    0.09256  71.1%     -    0s
     0     0    0.09256    0  299    0.31991    0.09256  71.1%     -    0s
     0     0    0.09973    0  317    0.31991    0.09973  68.8%     -    0s
     0     0    0.09973    0  363    0.31991    0.09973  68.8%     -    0s
     0     0    0.09973    0  330    0.31991    0.09973  68.8%     -    0s
     0     0    0.09973    0  328    0.31991    0.09973  68.8%     -    0s
     0     2    0.09973    0  328    0.31991    0.09973  68.8%     -    0s
H   34    37                       0.3199136    0.10208  68.1%   270    1s
H   73    76                       0.3194947    0.10208  68.0%   227    1s
H   79    80                       0.3134021    0.10208  67.4%   228    1s
H  121   123                       0.3129833    0.10208  67.4%   190    1s
H  213   195                       0.3129832    0.10208  67.4%   160    1s
H  215   192                       0.3013517    0.10208  66.1%   160    1s
H  217   182                       0.2883149    0.10208  64.6%   160    1s
H  346   280                       0.2800893    0.10208  63.6%   141    1s
H  381   291                       0.2718677    0.10208  62.5%   139    1s
H  719   488                       0.2692909    0.13560  49.6%   129    2s
H 1250   773                       0.2692909    0.16717  37.9%   142    2s
H 1519   880                       0.2692900    0.16719  37.9%   149    4s
  1541   893    0.16719   21  187    0.26929    0.16719  37.9%   149    5s
 10005  4395    0.23919   61  117    0.26929    0.16719  37.9%  77.7   10s
 22278  8249    0.19042   25  166    0.26929    0.16999  36.9%  75.2   15s
 29487  9921    0.23445   39  238    0.26929    0.18271  32.2%  72.8   27s
 35235 10553 infeasible   46         0.26929    0.19458  27.7%  75.8   30s
*37462 10657              50       0.2692882    0.19859  26.3%  78.4   31s
H38493 10778                       0.2692873    0.20019  25.7%  79.2   31s
 43170 10959    0.23950   34  244    0.26929    0.20691  23.2%  81.5   35s
 51925 10585     cutoff   29         0.26929    0.22089  18.0%  86.5   40s
 60538  9309     cutoff   32         0.26929    0.22997  14.6%  90.4   45s
 70878  7409    0.23873   22  180    0.26929    0.23873  11.3%  90.8   50s
 82056  4989     cutoff   32         0.26929    0.24830  7.79%  89.6   55s

Cutting planes:
  Gomory: 2
  Cover: 2
  Implied bound: 13
  Projected implied bound: 1
  Clique: 6
  MIR: 29
  Flow cover: 144
  GUB cover: 9
  Zero half: 23

Explored 94686 nodes (8064896 simplex iterations) in 59.07 seconds
Thread count was 8 (of 8 available processors)

Solution count 10: 0.269287 0.269288 0.26929 ... 0.312983

Optimal solution found (tolerance 1.00e-04)
Best objective 2.692872676884e-01, best bound 2.692872676884e-01, gap 0.0000%

Gurobi 8.1.1 (linux64) logging started Tue Apr 20 15:57:39 2021

Academic license - for non-commercial use only
Presolve added 3027 rows and 0 columns
Presolve removed 0 rows and 1120 columns
Presolve time: 0.05s
Optimize a model with 63 rows, 3440 columns and 3617 nonzeros
Model has 3400 general constraints
Variable types: 20 continuous, 3420 integer (3376 binary)
Coefficient statistics:
  Matrix range     [2e-08, 1e+00]
  Objective range  [1e+00, 1e+00]
  Bounds range     [6e-03, 7e+00]
  RHS range        [1e+00, 7e+00]
Presolve added 3027 rows and 0 columns
Presolve removed 0 rows and 1120 columns
Presolve time: 0.06s
Presolved: 3090 rows, 2320 columns, 10875 nonzeros
Variable types: 2 continuous, 2318 integer (2077 binary)
Found heuristic solution: objective 0.6490662

Root relaxation: objective 7.508242e-02, 1509 iterations, 0.06 seconds

    Nodes    |    Current Node    |     Objective Bounds      |     Work
 Expl Unexpl |  Obj  Depth IntInf | Incumbent    BestBd   Gap | It/Node Time

     0     0    0.07508    0  304    0.64907    0.07508  88.4%     -    0s
     0     0    0.07544    0  289    0.64907    0.07544  88.4%     -    0s
H    0     0                       0.4066856    0.07544  81.5%     -    0s
     0     0    0.07544    0  216    0.40669    0.07544  81.5%     -    0s
     0     0    0.07648    0  256    0.40669    0.07648  81.2%     -    0s
     0     0    0.07648    0  270    0.40669    0.07648  81.2%     -    0s
     0     0    0.07662    0  256    0.40669    0.07662  81.2%     -    0s
     0     0    0.07663    0  310    0.40669    0.07663  81.2%     -    0s
     0     0    0.07687    0  288    0.40669    0.07687  81.1%     -    0s
     0     0    0.07687    0  344    0.40669    0.07687  81.1%     -    0s
     0     0    0.07729    0  290    0.40669    0.07729  81.0%     -    0s
     0     0    0.07729    0  292    0.40669    0.07729  81.0%     -    0s
H    0     0                       0.3666561    0.07729  78.9%     -    0s
     0     0    0.07730    0  328    0.36666    0.07730  78.9%     -    0s
     0     0    0.07743    0  348    0.36666    0.07743  78.9%     -    0s
H    0     0                       0.3612148    0.07743  78.6%     -    0s
     0     0    0.07792    0  308    0.36121    0.07792  78.4%     -    0s
     0     0    0.07792    0  319    0.36121    0.07792  78.4%     -    0s
     0     0    0.07849    0  262    0.36121    0.07849  78.3%     -    0s
     0     0    0.07859    0  285    0.36121    0.07859  78.2%     -    0s
     0     0    0.07893    0  305    0.36121    0.07893  78.1%     -    0s
H    0     0                       0.3367008    0.07893  76.6%     -    0s
     0     0    0.07897    0  313    0.33670    0.07897  76.5%     -    0s
     0     0    0.07910    0  313    0.33670    0.07910  76.5%     -    0s
     0     0    0.07925    0  340    0.33670    0.07925  76.5%     -    0s
     0     0    0.07946    0  314    0.33670    0.07946  76.4%     -    0s
     0     0    0.07953    0  313    0.33670    0.07953  76.4%     -    0s
     0     0    0.07959    0  342    0.33670    0.07959  76.4%     -    0s
H    0     0                       0.2803918    0.07959  71.6%     -    0s
     0     0    0.07959    0  332    0.28039    0.07959  71.6%     -    0s
     0     0    0.07960    0  377    0.28039    0.07960  71.6%     -    0s
     0     0    0.07978    0  352    0.28039    0.07978  71.5%     -    0s
     0     0    0.07979    0  355    0.28039    0.07979  71.5%     -    0s
     0     0    0.07979    0  390    0.28039    0.07979  71.5%     -    0s
     0     0    0.07987    0  341    0.28039    0.07987  71.5%     -    0s
     0     0    0.07988    0  367    0.28039    0.07988  71.5%     -    0s
     0     0    0.07990    0  355    0.28039    0.07990  71.5%     -    0s
     0     0    0.07990    0  373    0.28039    0.07990  71.5%     -    0s
     0     0    0.07991    0  370    0.28039    0.07991  71.5%     -    0s
     0     0    0.07992    0  381    0.28039    0.07992  71.5%     -    0s
     0     0    0.07992    0  376    0.28039    0.07992  71.5%     -    1s
     0     0    0.07992    0  375    0.28039    0.07992  71.5%     -    1s
     0     2    0.07992    0  298    0.28039    0.07992  71.5%     -    1s
H  177   179                       0.2721689    0.08319  69.4%   103    1s
  1580  1258    0.20779   18  286    0.27217    0.09868  63.7%  84.8    5s
H 4316  1996                       0.2700042    0.11096  58.9%  77.1    7s
H 4322  1930                       0.2695854    0.11096  58.8%  77.0    7s
* 5138  2267              62       0.2695844    0.11223  58.4%  75.0    8s
H 5440  2371                       0.2667052    0.11841  55.6%  75.2    9s
  5545  2436    0.21029   36  182    0.26671    0.11841  55.6%  75.3   10s
 14613  6822    0.19955   26  375    0.26671    0.13503  49.4%  78.0   15s
 16153  7394    0.13503   37  191    0.26671    0.13503  49.4%  78.8   20s
 20321  8258    0.18082   37  215    0.26671    0.13503  49.4%  79.2   25s
 29236  9213    0.19000   43  375    0.26671    0.14702  44.9%  81.1   40s
 29266  9233    0.20499   51  436    0.26671    0.14702  44.9%  81.0   45s
 29294  9252    0.19752   51  443    0.26671    0.14702  44.9%  80.9   50s
 29320  9269    0.17861   36  442    0.26671    0.14702  44.9%  80.9   55s
 29332  9286    0.14702   44  346    0.26671    0.14702  44.9%  81.3   60s
 29654  9427    0.24840   61  187    0.26671    0.14702  44.9%  82.6   66s
 31859  9600     cutoff   60         0.26671    0.14702  44.9%  85.8   70s
H37155  9191                       0.2665535    0.18141  31.9%  87.6   74s
 38747  9093    0.24940   59  232    0.26655    0.18563  30.4%  88.1   75s
 45819  7209    0.25958   54  162    0.26655    0.20496  23.1%  92.8   80s
 50386  5613     cutoff   60         0.26655    0.21706  18.6%  96.4   85s
 56968  3309    0.24288   62  171    0.26655    0.23253  12.8%  97.9   90s
 65926  2133    0.25427   53  211    0.26655    0.24567  7.84%  95.3   95s
H67658  1699                       0.2665504    0.24949  6.40%  94.8   95s

Cutting planes:
  Gomory: 3
  Cover: 2
  Implied bound: 19
  Projected implied bound: 1
  Clique: 9
  MIR: 6
  Flow cover: 117
  GUB cover: 1
  Zero half: 53

Explored 71278 nodes (6631906 simplex iterations) in 97.09 seconds
Thread count was 8 (of 8 available processors)

Solution count 10: 0.26655 0.266553 0.266705 ... 0.336701

Optimal solution found (tolerance 1.00e-04)
Best objective 2.665504318457e-01, best bound 2.665504318457e-01, gap 0.0000%
